p wcnf 140 1600
9 -135 138 0
10 -132 135 0
4 -131 -136 0
6 -130 131 0
5 -127 135 0
3 -126 -134 0
2 -126 -131 0
4 -124 -125 0
7 -123 140 0
6 -122 -132 0
3 -121 -135 0
9 -121 -130 0
8 -121 129 0
6 -120 -122 0
8 -119 130 0
6 -118 -126 0
3 -118 122 0
3 -118 132 0
6 -117 123 0
3 -117 127 0
9 -116 -131 0
1 -116 -119 0
7 -116 120 0
8 -114 132 0
7 -114 133 0
9 -113 -133 0
2 -113 124 0
3 -112 -127 0
4 -112 -125 0
9 -112 -124 0
3 -112 -119 0
3 -112 117 0
9 -112 134 0
6 -111 116 0
8 -111 123 0
3 -111 135 0
8 -110 -129 0
9 -110 -124 0
6 -110 -111 0
5 -108 -136 0
5 -108 128 0
9 -108 132 0
4 -107 128 0
3 -106 -133 0
4 -106 125 0
2 -106 127 0
8 -104 -125 0
7 -104 112 0
4 -103 -125 0
4 -103 -114 0
9 -103 -104 0
3 -103 129 0
4 -102 -126 0
6 -102 131 0
1 -101 -134 0
1 -101 -132 0
5 -101 -115 0
3 -101 -111 0
3 -101 135 0
8 -100 -132 0
1 -100 -122 0
5 -100 -111 0
10 -100 -105 0
9 -100 108 0
1 -100 137 0
8 -98 -127 0
2 -98 103 0
8 -98 110 0
7 -97 98 0
8 -97 123 0
2 -97 138 0
2 -96 -124 0
7 -96 -122 0
5 -96 -120 0
4 -96 -119 0
1 -96 -117 0
6 -96 -112 0
2 -96 -109 0
7 -96 -108 0
9 -96 115 0
5 -96 125 0
6 -96 128 0
2 -96 130 0
8 -95 -116 0
2 -95 -104 0
3 -94 -139 0
8 -94 -135 0
6 -94 -132 0
4 -93 -127 0
10 -93 -115 0
4 -93 102 0
4 -93 125 0
5 -92 -133 0
4 -92 -101 0
3 -92 108 0
5 -92 134 0
2 -91 -120 0
5 -91 95 0
3 -91 140 0
8 -90 91 0
3 -90 98 0
4 -90 103 0
9 -90 106 0
8 -90 120 0
8 -90 121 0
3 -90 132 0
9 -89 -131 0
4 -89 -130 0
4 -89 -93 0
6 -89 95 0
4 -89 98 0
8 -89 128 0
2 -88 -98 0
5 -88 99 0
6 -87 -118 0
3 -87 94 0
7 -87 95 0
4 -87 113 0
8 -87 116 0
10 -86 -135 0
4 -86 -128 0
3 -86 -109 0
4 -86 -97 0
8 -85 -122 0
6 -85 -99 0
6 -85 -97 0
3 -85 120 0
7 -85 137 0
1 -84 -139 0
4 -84 -110 0
5 -84 -96 0
3 -84 120 0
7 -84 125 0
5 -83 -135 0
1 -83 -133 0
5 -83 -114 0
7 -83 88 0
9 -83 90 0
9 -83 105 0
2 -83 117 0
5 -82 -84 0
2 -82 85 0
9 -82 125 0
6 -82 129 0
6 -81 -104 0
5 -81 -95 0
8 -81 124 0
3 -81 127 0
9 -80 -135 0
6 -80 -113 0
2 -80 -89 0
3 -80 -82 0
8 -80 97 0
5 -80 99 0
10 -80 126 0
4 -80 140 0
2 -79 -110 0
2 -79 -104 0
1 -79 -85 0
2 -79 87 0
6 -79 131 0
6 -78 -113 0
4 -78 102 0
3 -78 138 0
10 -77 -137 0
4 -77 -120 0
7 -77 -109 0
7 -77 -89 0
3 -76 -77 0
6 -76 118 0
8 -76 119 0
7 -76 128 0
7 -75 -128 0
7 -75 -113 0
3 -75 -100 0
4 -75 92 0
2 -75 135 0
9 -74 -132 0
5 -74 -128 0
10 -74 -95 0
6 -74 -94 0
7 -74 -87 0
2 -74 81 0
4 -74 82 0
2 -74 108 0
2 -74 111 0
7 -73 -134 0
3 -73 -103 0
3 -73 -74 0
7 -73 78 0
4 -73 92 0
8 -73 95 0
3 -73 98 0
6 -73 118 0
10 -73 121 0
2 -72 -113 0
10 -72 -111 0
7 -72 -106 0
8 -72 -83 0
3 -72 78 0
3 -72 120 0
6 -72 128 0
9 -72 137 0
9 -71 -118 0
3 -71 -108 0
2 -71 -107 0
3 -71 -103 0
4 -71 -84 0
1 -71 73 0
7 -71 80 0
3 -71 82 0
6 -71 90 0
4 -71 94 0
4 -71 118 0
8 -70 -104 0
5 -70 -101 0
5 -69 -138 0
5 -69 -109 0
6 -69 111 0
7 -69 137 0
2 -68 -131 0
9 -68 -112 0
5 -68 -101 0
4 -68 -97 0
5 -68 -96 0
5 -68 -90 0
5 -68 -78 0
5 -68 -72 0
2 -68 73 0
3 -68 92 0
7 -68 97 0
4 -68 98 0
8 -68 99 0
6 -68 100 0
3 -68 101 0
10 -68 106 0
7 -68 117 0
5 -67 -116 0
3 -67 -87 0
7 -67 100 0
2 -67 122 0
5 -66 -137 0
2 -66 -128 0
4 -66 -74 0
9 -66 74 0
10 -66 99 0
8 -66 100 0
4 -66 103 0
4 -66 104 0
4 -66 137 0
1 -65 -137 0
5 -65 -131 0
3 -65 -112 0
5 -65 -66 0
8 -65 76 0
7 -65 86 0
9 -65 112 0
3 -65 115 0
2 -65 132 0
10 -64 -107 0
5 -64 -98 0
8 -64 -94 0
4 -64 -85 0
3 -64 -82 0
3 -64 -76 0
5 -64 -74 0
2 -64 100 0
9 -64 123 0
9 -63 -136 0
5 -63 -117 0
6 -63 -113 0
10 -63 -110 0
9 -63 -99 0
7 -63 -70 0
4 -63 -64 0
8 -63 89 0
7 -63 113 0
2 -63 134 0
1 -62 89 0
1 -62 114 0
5 -61 -124 0
2 -61 -102 0
6 -61 -80 0
7 -61 66 0
6 -61 79 0
3 -60 -135 0
5 -60 -131 0
5 -60 -90 0
5 -60 -74 0
6 -60 -72 0
5 -60 117 0
9 -59 -134 0
4 -59 -116 0
8 -59 -93 0
1 -59 -75 0
6 -59 83 0
3 -59 91 0
3 -59 93 0
5 -59 98 0
2 -58 -124 0
6 -58 -121 0
10 -58 -118 0
2 -58 -107 0
5 -58 63 0
7 -58 65 0
5 -58 91 0
3 -58 102 0
4 -57 -118 0
6 -57 -100 0
3 -57 -70 0
4 -57 59 0
10 -57 61 0
4 -57 69 0
8 -57 83 0
7 -57 107 0
9 -56 -97 0
2 -56 -96 0
2 -56 -88 0
4 -56 77 0
6 -56 85 0
7 -56 95 0
8 -55 -140 0
4 -55 -139 0
10 -55 -137 0
6 -55 -82 0
5 -55 -58 0
6 -55 -57 0
8 -55 90 0
6 -54 -137 0
10 -54 -132 0
9 -54 123 0
3 -53 -139 0
9 -53 -104 0
10 -53 -56 0
7 -53 55 0
6 -53 103 0
5 -52 -131 0
8 -52 -81 0
9 -52 57 0
9 -52 93 0
2 -52 115 0
3 -51 -124 0
9 -51 -115 0
4 -51 52 0
1 -51 92 0
7 -50 -119 0
3 -50 -117 0
2 -50 -108 0
8 -50 81 0
6 -50 92 0
6 -50 93 0
5 -50 106 0
4 -50 121 0
10 -50 135 0
4 -49 -123 0
9 -49 -109 0
4 -49 60 0
9 -49 134 0
7 -48 -129 0
10 -48 -126 0
8 -48 -63 0
6 -48 -49 0
2 -48 89 0
8 -48 95 0
6 -48 99 0
8 -48 106 0
4 -48 107 0
10 -47 -136 0
7 -47 -125 0
3 -47 -92 0
9 -47 49 0
7 -47 71 0
5 -47 125 0
8 -46 -109 0
1 -46 -102 0
5 -46 -78 0
5 -46 49 0
4 -46 69 0
6 -46 93 0
3 -46 94 0
9 -46 96 0
2 -46 137 0
6 -45 -135 0
3 -45 -107 0
2 -45 -87 0
9 -45 -84 0
3 -45 -68 0
5 -45 48 0
8 -45 71 0
9 -45 83 0
5 -45 95 0
6 -45 119 0
5 -45 124 0
6 -44 -128 0
4 -44 51 0
1 -44 56 0
5 -43 -136 0
7 -43 -134 0
1 -43 -128 0
1 -43 -101 0
9 -43 -98 0
9 -43 -77 0
7 -43 -76 0
4 -43 -72 0
8 -43 -63 0
8 -43 77 0
8 -43 103 0
3 -43 108 0
1 -43 126 0
4 -42 -84 0
5 -42 -48 0
9 -42 131 0
5 -41 -130 0
10 -41 -94 0
3 -41 -66 0
6 -41 42 0
9 -41 58 0
4 -41 74 0
2 -41 126 0
7 -41 135 0
3 -40 -125 0
6 -40 -90 0
3 -40 -78 0
7 -40 -58 0
2 -40 -48 0
6 -40 57 0
7 -40 73 0
6 -40 83 0
3 -40 97 0
8 -40 106 0
6 -39 -138 0
2 -39 -108 0
7 -39 -93 0
3 -39 -57 0
5 -39 75 0
5 -39 131 0
9 -38 -132 0
2 -38 -107 0
7 -38 -93 0
10 -38 -88 0
5 -38 -73 0
1 -38 -43 0
9 -38 44 0
9 -38 66 0
10 -38 88 0
1 -38 102 0
6 -38 136 0
9 -37 -134 0
5 -37 -94 0
6 -37 -91 0
6 -37 -89 0
7 -37 -74 0
2 -37 73 0
7 -37 86 0
4 -37 104 0
3 -37 105 0
3 -37 132 0
1 -36 -139 0
8 -36 -129 0
5 -36 -107 0
8 -36 -95 0
3 -36 -53 0
6 -36 45 0
5 -36 65 0
5 -36 66 0
9 -36 76 0
8 -36 84 0
4 -36 107 0
2 -36 127 0
5 -36 132 0
4 -35 -124 0
6 -35 -115 0
5 -35 -97 0
3 -35 -80 0
5 -35 40 0
5 -35 97 0
3 -35 114 0
1 -34 -88 0
4 -34 -61 0
6 -34 -41 0
6 -34 51 0
9 -34 110 0
3 -34 136 0
7 -33 -136 0
6 -33 -132 0
6 -33 -100 0
9 -33 -92 0
8 -33 -80 0
6 -33 -71 0
7 -33 55 0
3 -33 59 0
3 -33 114 0
9 -33 115 0
8 -33 120 0
7 -32 -138 0
4 -32 -133 0
7 -32 -131 0
6 -32 -117 0
7 -32 -74 0
7 -32 -67 0
10 -32 -52 0
1 -32 97 0
3 -31 -107 0
5 -31 -97 0
3 -31 -35 0
8 -31 68 0
10 -31 79 0
4 -31 93 0
8 -31 98 0
4 -30 -128 0
10 -30 -91 0
4 -30 -42 0
3 -30 40 0
3 -30 46 0
1 -30 65 0
8 -30 71 0
8 -30 84 0
10 -30 124 0
6 -30 128 0
4 -30 132 0
7 -30 139 0
8 -29 -138 0
6 -29 63 0
6 -29 88 0
5 -28 -133 0
3 -28 -74 0
9 -28 -51 0
2 -28 -34 0
8 -28 36 0
6 -28 42 0
8 -28 52 0
8 -28 75 0
6 -28 132 0
1 -28 139 0
3 -27 -140 0
8 -27 -88 0
8 -27 -87 0
2 -27 -82 0
3 -27 82 0
6 -27 106 0
5 -27 120 0
2 -26 -133 0
9 -26 -129 0
7 -26 -81 0
5 -26 -61 0
9 -26 -41 0
4 -26 41 0
2 -26 50 0
9 -26 63 0
9 -26 87 0
5 -26 107 0
6 -26 135 0
7 -25 -135 0
1 -25 -127 0
1 -25 -101 0
2 -25 -64 0
4 -25 -33 0
9 -25 -28 0
3 -25 -27 0
2 -25 36 0
6 -25 59 0
2 -25 75 0
8 -25 91 0
2 -25 100 0
2 -25 107 0
10 -25 123 0
9 -24 -111 0
9 -24 -82 0
2 -24 -63 0
2 -24 65 0
5 -24 84 0
6 -24 91 0
3 -24 112 0
4 -23 -103 0
3 -23 84 0
7 -23 103 0
3 -22 -134 0
6 -22 -129 0
8 -22 -115 0
2 -22 -91 0
5 -22 -76 0
3 -22 -30 0
6 -22 -29 0
2 -22 42 0
4 -22 47 0
7 -22 51 0
4 -22 75 0
7 -22 107 0
6 -22 115 0
6 -22 119 0
7 -22 138 0
2 -22 140 0
7 -21 -131 0
6 -21 -118 0
3 -21 -105 0
8 -21 -104 0
5 -21 -79 0
2 -21 -30 0
7 -21 53 0
7 -21 58 0
3 -21 71 0
2 -21 76 0
3 -21 87 0
5 -21 90 0
5 -21 129 0
5 -20 -135 0
2 -20 -109 0
7 -20 -73 0
1 -20 -66 0
9 -20 36 0
7 -20 39 0
6 -20 44 0
2 -20 46 0
4 -20 57 0
7 -20 74 0
5 -20 78 0
9 -20 118 0
10 -19 -125 0
2 -19 -119 0
5 -19 -104 0
6 -19 -79 0
8 -19 -73 0
6 -19 -48 0
3 -19 51 0
4 -19 57 0
8 -19 84 0
10 -19 105 0
8 -19 110 0
9 -18 -121 0
7 -18 -120 0
5 -18 -114 0
1 -18 -88 0
8 -18 -62 0
7 -18 -59 0
5 -18 41 0
2 -18 45 0
2 -18 51 0
6 -18 81 0
8 -18 98 0
3 -18 126 0
4 -18 129 0
5 -17 -135 0
7 -17 -47 0
5 -17 -36 0
8 -17 -33 0
5 -17 -29 0
9 -17 95 0
7 -17 124 0
5 -16 -137 0
1 -16 -103 0
2 -16 -93 0
10 -16 -59 0
8 -16 -32 0
7 -16 -29 0
3 -16 119 0
2 -15 -91 0
4 -15 -79 0
2 -15 -42 0
9 -15 -30 0
3 -15 -23 0
8 -15 21 0
3 -15 23 0
3 -15 52 0
6 -15 62 0
9 -15 115 0
7 -14 -124 0
7 -14 -119 0
1 -14 -104 0
3 -14 -75 0
5 -14 -63 0
3 -14 -34 0
6 -14 19 0
9 -14 36 0
10 -14 81 0
1 -14 139 0
7 -13 -71 0
4 -13 -70 0
10 -13 -52 0
4 -13 -37 0
8 -13 -16 0
10 -13 19 0
5 -13 69 0
8 -12 -134 0
8 -12 -114 0
2 -12 -106 0
9 -12 -93 0
8 -12 -39 0
5 -12 31 0
2 -12 40 0
7 -12 63 0
7 -12 74 0
9 -12 83 0
9 -12 87 0
9 -12 99 0
5 -12 131 0
9 -11 -136 0
6 -11 -81 0
2 -11 -75 0
9 -11 -61 0
7 -11 -53 0
6 -11 68 0
2 -11 96 0
3 -10 -136 0
5 -10 -97 0
2 -10 -79 0
3 -10 14 0
2 -10 20 0
5 -10 36 0
3 -10 110 0
4 -10 111 0
3 -10 124 0
3 -10 140 0
8 -9 -111 0
10 -9 -81 0
9 -9 -79 0
9 -9 -58 0
9 -9 -46 0
8 -9 -41 0
4 -9 91 0
1 -9 95 0
5 -9 97 0
9 -9 116 0
9 -8 -129 0
4 -8 -109 0
8 -8 -80 0
4 -8 -55 0
3 -8 -24 0
4 -8 49 0
4 -8 139 0
2 -7 -117 0
1 -7 -90 0
9 -7 -77 0
3 -7 18 0
3 -7 45 0
4 -7 61 0
4 -7 74 0
6 -7 115 0
5 -7 118 0
8 -7 125 0
8 -6 -131 0
8 -6 -99 0
9 -6 -57 0
9 -6 -46 0
6 -6 -45 0
9 -6 39 0
8 -6 58 0
5 -6 78 0
8 -6 86 0
6 -6 97 0
7 -6 120 0
8 -5 -119 0
10 -5 -114 0
7 -5 -96 0
7 -5 -69 0
4 -5 -65 0
5 -5 -58 0
1 -5 -31 0
5 -5 -13 0
7 -5 -12 0
4 -5 24 0
6 -5 40 0
8 -5 41 0
4 -5 60 0
8 -5 92 0
10 -5 95 0
7 -5 132 0
2 -4 -95 0
6 -4 -81 0
1 -4 -16 0
8 -4 20 0
3 -4 22 0
8 -4 50 0
8 -4 58 0
2 -4 67 0
5 -4 81 0
7 -4 86 0
10 -4 113 0
9 -4 117 0
5 -4 122 0
6 -3 -125 0
6 -3 -111 0
4 -3 -86 0
6 -3 -70 0
3 -3 -36 0
1 -3 9 0
8 -3 13 0
6 -3 14 0
1 -3 36 0
4 -3 43 0
4 -3 108 0
5 -3 116 0
9 -3 117 0
1 -2 -127 0
7 -2 -108 0
7 -2 -71 0
1 -2 -50 0
4 -2 4 0
8 -2 30 0
6 -2 41 0
4 -2 46 0
6 -2 59 0
8 -2 66 0
2 -2 85 0
4 -2 129 0
9 -2 139 0
6 -1 -138 0
10 -1 -97 0
9 -1 -96 0
4 -1 -78 0
5 -1 -65 0
5 -1 -55 0
9 -1 -50 0
8 -1 -49 0
9 -1 -31 0
2 -1 -19 0
9 -1 -16 0
7 -1 -14 0
8 -1 -2 0
9 -1 7 0
1 -1 23 0
1 -1 38 0
4 -1 68 0
9 -1 78 0
2 -1 83 0
1 -1 100 0
6 -1 104 0
2 -1 115 0
4 -1 119 0
4 1 -80 0
7 1 -27 0
8 1 -24 0
9 1 19 0
5 1 21 0
9 1 26 0
3 1 31 0
4 1 32 0
5 1 41 0
3 1 56 0
3 1 69 0
9 1 92 0
7 1 138 0
6 2 -132 0
8 2 -127 0
5 2 -100 0
5 2 -89 0
9 2 -69 0
4 2 -26 0
3 2 19 0
7 2 25 0
3 2 42 0
3 2 45 0
7 2 89 0
6 2 93 0
2 2 97 0
8 2 118 0
6 2 139 0
7 3 -127 0
9 3 -111 0
10 3 -94 0
10 3 -90 0
6 3 -31 0
8 3 -24 0
9 3 -11 0
10 3 6 0
7 3 55 0
1 3 73 0
4 3 77 0
2 3 79 0
3 3 90 0
6 4 -120 0
9 4 -110 0
9 4 -109 0
2 4 -92 0
7 4 -62 0
5 4 -11 0
6 4 24 0
6 4 28 0
8 4 59 0
8 4 97 0
3 4 109 0
10 4 111 0
10 4 114 0
9 5 -126 0
6 5 -109 0
1 5 -105 0
7 5 -84 0
2 5 -48 0
7 5 83 0
6 5 120 0
2 5 126 0
7 5 133 0
2 5 140 0
8 6 -136 0
5 6 -131 0
2 6 -119 0
5 6 -96 0
6 6 -55 0
5 6 -49 0
6 6 -41 0
8 6 -39 0
9 6 -23 0
5 6 -10 0
7 6 12 0
1 6 14 0
2 6 51 0
2 6 57 0
6 6 70 0
7 6 83 0
9 6 88 0
4 6 95 0
9 7 -125 0
8 7 -81 0
4 7 -52 0
8 7 -25 0
4 7 -23 0
4 7 27 0
5 7 44 0
5 7 67 0
2 7 69 0
10 8 -139 0
6 8 -119 0
7 8 -92 0
1 8 -86 0
4 8 -72 0
2 8 -43 0
2 8 16 0
8 8 39 0
7 8 46 0
6 8 55 0
4 8 56 0
5 8 64 0
5 8 76 0
8 8 87 0
2 8 97 0
5 8 108 0
9 9 -96 0
3 9 -89 0
2 9 -72 0
7 9 -55 0
2 9 -36 0
5 9 83 0
6 9 96 0
9 9 99 0
8 9 105 0
4 9 139 0
3 10 -119 0
2 10 -104 0
8 10 20 0
7 10 38 0
3 10 48 0
8 10 125 0
3 10 128 0
9 11 -90 0
8 11 -47 0
6 11 -20 0
2 11 27 0
9 11 35 0
4 11 59 0
8 11 108 0
5 11 111 0
7 11 119 0
3 11 126 0
9 12 -102 0
5 12 -31 0
4 12 22 0
4 12 63 0
4 12 109 0
7 12 112 0
5 12 124 0
10 13 -114 0
8 13 -72 0
9 13 -63 0
6 13 -18 0
7 13 50 0
7 13 58 0
9 13 76 0
9 14 -129 0
8 14 -117 0
7 14 -82 0
6 14 -66 0
1 14 -64 0
5 14 -33 0
8 14 -24 0
10 14 -22 0
3 14 52 0
4 14 65 0
1 14 82 0
3 14 97 0
7 14 113 0
8 14 126 0
7 15 -136 0
4 15 -131 0
10 15 -60 0
6 15 -44 0
8 15 18 0
4 15 42 0
9 15 54 0
2 15 57 0
1 15 79 0
4 15 108 0
2 15 134 0
8 16 -41 0
3 16 51 0
6 16 63 0
5 16 78 0
9 16 94 0
5 16 97 0
5 17 -134 0
7 17 -86 0
2 17 -43 0
1 17 19 0
7 17 46 0
6 17 64 0
8 17 70 0
7 17 92 0
8 17 105 0
2 17 110 0
7 17 114 0
1 18 -74 0
8 18 -56 0
5 18 -55 0
7 18 -42 0
2 18 -32 0
5 18 55 0
3 18 66 0
9 18 74 0
9 18 118 0
2 19 -132 0
10 19 -79 0
9 19 -72 0
5 19 -50 0
1 19 -34 0
7 19 -26 0
7 19 42 0
7 19 96 0
2 20 -131 0
6 20 -102 0
2 20 -72 0
6 20 -70 0
3 20 -32 0
3 20 -24 0
7 20 44 0
9 20 57 0
8 20 78 0
5 20 97 0
6 21 -136 0
6 21 -117 0
7 21 -116 0
4 21 -110 0
7 21 -96 0
5 21 -94 0
8 21 -93 0
4 21 -71 0
6 21 -68 0
3 21 -61 0
6 21 -34 0
4 21 32 0
2 21 39 0
7 21 43 0
4 21 49 0
10 21 73 0
2 21 88 0
4 21 99 0
6 21 102 0
8 21 120 0
1 22 -121 0
8 22 -55 0
4 22 -34 0
2 22 -33 0
4 22 -26 0
6 22 28 0
4 22 37 0
1 22 42 0
5 22 76 0
2 22 128 0
5 22 136 0
2 23 -133 0
7 23 -109 0
2 23 -107 0
4 23 -100 0
4 23 -95 0
6 23 -30 0
2 23 50 0
7 24 -86 0
1 24 -45 0
4 24 -25 0
2 24 72 0
4 24 89 0
5 24 94 0
8 24 102 0
7 24 113 0
4 25 -122 0
9 25 -90 0
2 25 -62 0
10 25 30 0
8 25 38 0
2 25 54 0
8 25 94 0
2 25 115 0
2 25 130 0
2 25 131 0
7 25 140 0
5 26 -135 0
2 26 -38 0
2 26 99 0
6 27 -128 0
7 27 -99 0
2 27 -89 0
3 27 -83 0
8 27 -75 0
5 27 -48 0
6 27 -35 0
3 27 28 0
6 27 42 0
3 27 44 0
3 27 60 0
10 28 -76 0
4 28 -68 0
6 28 38 0
5 28 57 0
2 28 64 0
4 28 100 0
8 29 -128 0
2 29 -122 0
4 29 -91 0
8 29 -50 0
8 29 47 0
5 29 104 0
6 29 128 0
9 30 -120 0
7 30 -67 0
7 30 -44 0
5 30 -35 0
2 30 45 0
8 30 76 0
6 30 123 0
7 31 -93 0
5 31 -59 0
8 31 -56 0
9 31 -54 0
3 31 78 0
3 31 94 0
5 31 118 0
5 31 123 0
9 32 -138 0
7 32 -131 0
7 32 -119 0
8 32 -100 0
1 32 -59 0
3 32 -50 0
3 32 -49 0
3 32 52 0
6 32 62 0
10 32 72 0
4 32 73 0
9 32 83 0
8 32 89 0
2 32 90 0
5 32 124 0
4 33 -102 0
10 33 -89 0
1 33 -70 0
10 33 -39 0
5 33 106 0
2 33 110 0
8 33 122 0
2 33 124 0
8 34 -137 0
3 34 -118 0
8 34 -90 0
7 34 -78 0
4 34 -57 0
1 34 -45 0
2 34 39 0
8 34 47 0
9 34 48 0
9 34 126 0
5 35 -132 0
7 35 -131 0
9 35 -119 0
7 35 -99 0
9 35 -94 0
2 35 -80 0
3 35 -75 0
9 35 99 0
4 36 94 0
3 36 123 0
6 36 135 0
5 37 -102 0
6 37 -54 0
9 37 111 0
5 37 124 0
6 37 126 0
9 37 128 0
9 37 132 0
7 38 -130 0
7 38 -100 0
10 38 -89 0
5 38 -88 0
9 38 -56 0
8 38 91 0
2 38 92 0
3 38 105 0
8 38 135 0
3 39 -110 0
2 39 -108 0
7 39 -91 0
2 39 -87 0
5 39 -44 0
3 39 69 0
10 40 -130 0
3 40 -86 0
2 40 -43 0
1 40 54 0
5 40 60 0
10 40 82 0
5 40 89 0
7 40 101 0
6 40 129 0
9 41 -132 0
3 41 -122 0
5 41 66 0
4 42 -120 0
8 42 -67 0
4 42 -66 0
4 42 85 0
5 42 93 0
1 42 107 0
4 42 129 0
9 43 -103 0
9 43 -96 0
1 43 -95 0
10 43 -75 0
3 43 55 0
9 43 56 0
3 43 73 0
3 43 100 0
5 43 114 0
3 44 -138 0
8 44 -137 0
8 44 -101 0
3 44 -72 0
9 44 107 0
9 44 123 0
3 45 48 0
4 45 85 0
8 45 88 0
7 45 127 0
1 46 -135 0
4 46 -133 0
7 46 -97 0
3 46 -93 0
9 46 -70 0
10 46 110 0
1 46 134 0
3 47 -127 0
4 47 63 0
6 47 74 0
3 47 105 0
6 47 112 0
5 48 -114 0
2 48 -90 0
7 48 132 0
5 49 -132 0
3 49 -95 0
5 49 54 0
7 49 56 0
6 49 137 0
9 50 -134 0
9 50 -131 0
3 50 -109 0
7 50 -96 0
2 50 -85 0
2 50 -69 0
6 50 100 0
4 50 113 0
6 50 127 0
4 50 134 0
2 50 137 0
6 51 -103 0
8 51 -98 0
7 51 -89 0
8 51 -83 0
6 51 -75 0
7 51 -59 0
8 51 92 0
8 51 124 0
10 52 -88 0
4 52 -62 0
10 52 92 0
6 53 -131 0
8 53 -121 0
2 53 -95 0
2 53 -90 0
3 53 -83 0
4 53 90 0
7 53 94 0
9 53 97 0
9 53 102 0
6 54 -127 0
8 54 -104 0
2 54 -93 0
3 54 -86 0
9 54 -78 0
3 54 -74 0
8 54 -65 0
4 54 -60 0
8 54 108 0
2 54 109 0
4 54 123 0
4 55 -134 0
8 55 -121 0
2 55 -117 0
2 55 -108 0
4 55 -102 0
8 55 -85 0
9 55 -70 0
2 55 -64 0
8 55 -63 0
3 55 85 0
2 55 121 0
4 55 125 0
10 55 132 0
3 56 -116 0
5 56 -108 0
3 56 -95 0
6 56 -86 0
2 56 74 0
2 56 75 0
4 56 85 0
6 56 88 0
9 56 98 0
5 56 128 0
8 57 -95 0
8 57 100 0
7 57 107 0
6 57 122 0
2 57 140 0
5 58 -138 0
7 58 -128 0
5 58 -123 0
8 58 -122 0
5 58 -119 0
6 58 -83 0
9 58 -70 0
8 58 70 0
4 58 79 0
7 58 81 0
9 58 86 0
1 59 -132 0
9 59 -87 0
1 59 -79 0
4 59 -78 0
9 59 95 0
3 59 117 0
8 59 139 0
2 60 -133 0
7 60 -115 0
9 60 -114 0
3 60 -89 0
2 60 78 0
5 60 90 0
2 60 99 0
6 60 110 0
3 60 119 0
9 60 127 0
3 61 83 0
8 61 102 0
10 62 -118 0
8 62 -91 0
5 62 68 0
5 62 102 0
6 62 110 0
9 63 64 0
9 63 115 0
4 63 140 0
7 64 -122 0
3 64 -110 0
2 64 -94 0
7 64 98 0
3 65 -79 0
10 65 81 0
7 65 116 0
6 65 139 0
9 66 -98 0
9 66 -89 0
4 66 108 0
9 66 115 0
6 67 -115 0
3 67 -77 0
2 67 69 0
7 67 83 0
7 67 130 0
3 68 -125 0
3 68 -74 0
9 68 75 0
2 68 89 0
5 68 103 0
7 68 121 0
2 69 -137 0
3 69 71 0
2 69 93 0
5 69 119 0
8 69 136 0
10 70 72 0
5 70 117 0
2 71 87 0
7 71 95 0
7 71 101 0
3 71 102 0
3 71 103 0
9 72 120 0
3 73 -134 0
9 73 -81 0
5 73 111 0
1 74 -139 0
8 74 -138 0
8 74 -130 0
10 74 -105 0
4 74 83 0
1 74 89 0
2 74 91 0
10 75 -118 0
7 75 -98 0
4 75 -92 0
3 76 -138 0
6 76 -103 0
5 76 -90 0
7 76 106 0
3 76 135 0
5 77 -134 0
8 77 -115 0
4 77 -81 0
9 77 93 0
6 77 114 0
4 77 120 0
4 77 126 0
7 77 139 0
10 78 -112 0
10 78 -106 0
9 78 -85 0
3 78 79 0
9 78 103 0
2 78 114 0
2 79 -102 0
4 79 -92 0
2 79 81 0
9 79 82 0
2 79 110 0
2 79 114 0
3 79 127 0
2 80 -133 0
2 80 -129 0
3 80 -86 0
8 80 118 0
5 80 131 0
5 81 -110 0
4 81 -103 0
9 81 -90 0
1 81 82 0
6 81 86 0
4 81 105 0
9 81 129 0
10 82 -110 0
3 82 -106 0
5 82 99 0
4 82 107 0
6 82 135 0
2 83 -127 0
3 83 -126 0
5 83 -121 0
1 83 -106 0
6 83 -102 0
4 83 138 0
2 84 85 0
7 84 97 0
7 85 114 0
3 86 -126 0
6 86 -120 0
8 86 -114 0
3 86 88 0
8 86 90 0
9 86 103 0
5 86 106 0
1 86 132 0
7 86 138 0
9 87 -105 0
5 87 93 0
2 88 -116 0
7 88 -102 0
5 88 -94 0
7 88 133 0
1 89 -138 0
4 89 -133 0
7 89 -125 0
3 89 -121 0
7 89 -113 0
9 89 123 0
8 90 -126 0
8 90 -123 0
3 90 103 0
4 90 125 0
8 90 127 0
7 91 -134 0
7 91 -127 0
9 91 -123 0
4 91 -119 0
3 91 -101 0
2 91 92 0
9 91 118 0
1 91 133 0
4 92 -127 0
7 92 -116 0
9 93 -139 0
8 93 -118 0
7 93 128 0
7 93 130 0
6 94 -100 0
2 94 101 0
7 94 114 0
4 94 136 0
6 95 -129 0
4 95 -110 0
4 95 -103 0
8 95 109 0
10 96 -130 0
6 96 131 0
6 97 -132 0
9 97 -111 0
4 97 -98 0
4 98 -136 0
2 98 103 0
7 98 125 0
2 99 -132 0
8 99 -129 0
3 99 122 0
2 100 -104 0
2 100 101 0
5 100 137 0
2 101 -124 0
10 102 -115 0
5 102 116 0
5 103 -131 0
7 103 -105 0
5 103 109 0
3 103 134 0
4 104 118 0
1 105 -115 0
8 106 -135 0
5 106 -123 0
8 106 -117 0
2 107 -123 0
10 107 119 0
2 107 120 0
4 108 137 0
8 109 130 0
2 110 -117 0
9 110 122 0
3 110 131 0
10 110 140 0
3 111 -132 0
7 111 -118 0
1 111 113 0
9 111 138 0
8 112 121 0
8 112 137 0
2 113 123 0
9 114 119 0
8 114 121 0
6 114 125 0
10 115 -132 0
8 115 -119 0
1 115 129 0
5 116 126 0
5 116 128 0
5 117 -138 0
7 117 -131 0
8 117 119 0
5 117 122 0
5 117 138 0
3 118 -122 0
3 118 131 0
6 119 -122 0
2 120 -125 0
4 122 125 0
9 122 139 0
9 123 -129 0
4 123 -128 0
9 123 137 0
3 125 -140 0
4 126 -140 0
2 126 -132 0
8 126 133 0
4 126 136 0
10 126 139 0
6 128 131 0
2 131 -136 0
2 131 140 0
5 133 -135 0
9 139 -140 0
